10  5
 1  6  0  3  2  9  3  7  4 10  10 176  10
 3 11  0  5  2 12  1  6  4 11  14 174  10
 3 10  0  8  2 10  1  6  4  9   8 181  10
 3 11  0 10  2 15  1  6  4 10  14 176   5
 1 11  3  9  2  9  0  3  4 14   0 181   5
 3  8  1  9  2 13  0  7  4 12   8 170   5
 3  4  1  3  2 14  0  3  4 11  16 166   5
 0  4  1  4  2 12  3 10  4 12  16 183  10
 0  4  1  4  2 11  3  7  4  8   1 174  10
 1  9  3  3  2 14  0  8  4 12  10 166  10
